<?xml version = "1.0" standalone="yes"?>
<!-- This file has been generated by DOcplex version 2.23.222  -->
<CPLEXSolution version="1.0">
 <header
   problemName="CVRP"
   objectiveValue="20192.1"
  />
 <variables>
  <variable name="x_0_2" index="1" value="1.00000"/>
  <variable name="x_0_5" index="4" value="1.00000"/>
  <variable name="x_0_8" index="7" value="1.00000"/>
  <variable name="x_0_9" index="8" value="1.00000"/>
  <variable name="x_0_10" index="9" value="1.00000"/>
  <variable name="x_0_13" index="12" value="1.00000"/>
  <variable name="x_0_14" index="13" value="1.00000"/>
  <variable name="x_0_15" index="14" value="1.00000"/>
  <variable name="x_0_16" index="15" value="1.00000"/>
  <variable name="x_0_17" index="16" value="1.00000"/>
  <variable name="x_0_21" index="20" value="1.00000"/>
  <variable name="x_0_24" index="23" value="1.00000"/>
  <variable name="x_0_25" index="24" value="1.00000"/>
  <variable name="x_0_26" index="25" value="1.00000"/>
  <variable name="x_1_0" index="26" value="1.00000"/>
  <variable name="x_2_22" index="73" value="1.00000"/>
  <variable name="x_3_0" index="78" value="1.00000"/>
  <variable name="x_4_12" index="115" value="1.00000"/>
  <variable name="x_5_11" index="140" value="1.00000"/>
  <variable name="x_6_0" index="156" value="1.00000"/>
  <variable name="x_7_3" index="185" value="1.00000"/>
  <variable name="x_8_7" index="215" value="1.00000"/>
  <variable name="x_9_0" index="234" value="1.00000"/>
  <variable name="x_10_4" index="264" value="1.00000"/>
  <variable name="x_11_0" index="286" value="1.00000"/>
  <variable name="x_12_23" index="334" value="1.00000"/>
  <variable name="x_13_18" index="355" value="1.00000"/>
  <variable name="x_14_0" index="364" value="1.00000"/>
  <variable name="x_15_19" index="408" value="1.00000"/>
  <variable name="x_16_20" index="435" value="1.00000"/>
  <variable name="x_17_6" index="448" value="1.00000"/>
  <variable name="x_18_0" index="468" value="1.00000"/>
  <variable name="x_19_1" index="495" value="1.00000"/>
  <variable name="x_20_0" index="520" value="1.00000"/>
  <variable name="x_21_0" index="546" value="1.00000"/>
  <variable name="x_22_0" index="572" value="1.00000"/>
  <variable name="x_23_0" index="598" value="1.00000"/>
  <variable name="x_24_0" index="624" value="1.00000"/>
  <variable name="x_25_0" index="650" value="1.00000"/>
  <variable name="x_26_0" index="676" value="1.00000"/>
  <variable name="u_1" index="702" value="22.00000"/>
  <variable name="u_2" index="703" value="21.00000"/>
  <variable name="u_3" index="704" value="22.00000"/>
  <variable name="u_4" index="705" value="10.00000"/>
  <variable name="u_5" index="706" value="5.00000"/>
  <variable name="u_6" index="707" value="22.00000"/>
  <variable name="u_7" index="708" value="9.00000"/>
  <variable name="u_8" index="709" value="8.00000"/>
  <variable name="u_9" index="710" value="22.00000"/>
  <variable name="u_10" index="711" value="3.00000"/>
  <variable name="u_11" index="712" value="22.00000"/>
  <variable name="u_12" index="713" value="12.00000"/>
  <variable name="u_13" index="714" value="18.00000"/>
  <variable name="u_14" index="715" value="21.00000"/>
  <variable name="u_15" index="716" value="5.00000"/>
  <variable name="u_16" index="717" value="10.00000"/>
  <variable name="u_17" index="718" value="17.00000"/>
  <variable name="u_18" index="719" value="22.00000"/>
  <variable name="u_19" index="720" value="15.00000"/>
  <variable name="u_20" index="721" value="22.00000"/>
  <variable name="u_21" index="722" value="22.00000"/>
  <variable name="u_22" index="723" value="22.00000"/>
  <variable name="u_23" index="724" value="22.00000"/>
  <variable name="u_24" index="725" value="17.00000"/>
  <variable name="u_25" index="726" value="21.00000"/>
  <variable name="u_26" index="727" value="11.00000"/>
 </variables>
</CPLEXSolution>
